
spin=up

begin projections
f = 0.2509300103456166,  0.7499857825058553,  0.2500167493147625: dx2-y2
f = 0.2509300103456166,  0.7499857825058553,  0.2500167493147625: dxz
f = 0.2509300103456166,  0.7499857825058553,  0.2500167493147625: dz2

f = 0.2509292515325617,  0.7499842468156879,  0.7500182001283787: dx2-y2
f = 0.2509292515325617,  0.7499842468156879,  0.7500182001283787: dxz
f = 0.2509292515325617,  0.7499842468156879,  0.7500182001283787: dz2
end projections

exclude_bands = 1-140, 148-320

guiding_centres = true
search_shells = 72

wannier_plot      =  true
wannier_plot_supercell = 2
bands_plot      =  true

kmesh_tol = 0.00000001

begin kpoint_path
  G  0.0 0.0 0.0  X  0.5 0.0 0.0
  X  0.5 0.0 0.0  S  0.5 0.5 0.0
  S  0.5 0.5 0.0  Y  0.0 0.5 0.0
  Y  0.0 0.5 0.0  G  0.0 0.0 0.0
  G  0.0 0.0 0.0  Z  0.0 0.0 0.5
  Z  0.0 0.0 0.5  U  0.5 0.0 0.5
  U  0.5 0.0 0.5  R  0.5 0.5 0.5
  R  0.5 0.5 0.5  T  0.0 0.5 0.5
  T  0.0 0.5 0.5  Z  0.0 0.0 0.5
  Y  0.0 0.5 0.0  T  0.0 0.5 0.5
  U  0.5 0.0 0.5  X  0.5 0.0 0.0
  S  0.5 0.5 0.0  R  0.5 0.5 0.5
end kpoint_path


bands_num_points 8
# This part was generated automatically by VASP
num_bands = 7
num_wann = 6
begin unit_cell_cart
    17.4187030     0.0000283     0.0170122
     0.0000204    12.5961840    -0.0000594
     0.0067788    -0.0000324     6.9317172
end unit_cell_cart
begin atoms_cart
V        4.3725854     9.4469579     1.7372698
V        4.3759616     9.4469224     5.2031384
V       13.0819289     3.1488689     1.7457550
V       13.0853384     3.1488498     5.2116072
O        4.3370643     8.5492641     0.0044344
O       13.1173949     2.2511854     3.4785866
O       13.0463434     4.0465348     0.0129157
O        4.4083756    10.3446053     3.4701232
O       14.5203231     1.8865462     1.1427632
O        5.7725938     8.1469948     4.5995031
O        2.9461515    10.7203518     1.1473642
O       11.6177865     4.3838537     4.6218576
O        5.8435356    10.6818990     5.7928980
O       14.5082801     4.4223732     2.3356892
O       11.6887149     1.8488610     5.8152063
O        2.9342177     8.1845708     2.3402499
O        2.9793090    10.7467589     5.8067895
O       11.6435345     4.4112197     2.3487525
O       14.5528951     1.9138975     5.8013826
O        5.7989524     8.1734527     2.3271942
O       11.6556008     1.8753152     1.1558020
O        2.9083638     8.2120184     4.6133409
O        5.8109562    10.7093917     1.1342829
O       14.4820067     4.4487408     4.6079927
C       16.8522463     0.3709971     1.2283322
C        8.0918239     6.6128765     4.6859411
C        0.6058242    12.2211718     1.2161780
C        9.2641492     5.8668811     4.6902181
C        8.1973491    12.1646158     5.7245111
C       16.8486688     5.9230952     2.2668251
C        9.3696609     0.3144145     5.7288139
C        0.6022488     6.6690151     2.2546995
C        0.6601468    12.2809763     5.7203026
C        9.3115141     5.9266437     2.2632359
C       16.9065335     0.4308598     5.7330695
C        8.1392275     6.6725845     2.2583463
C        9.3153276     0.3744884     1.2246755
C        0.5546552     6.7291367     4.6816674
C        8.1430493    12.2247525     1.2197596
C       16.8010433     5.9831563     4.6944057
C       16.2848106     0.7772725     6.9441647
C        7.5202142     7.0218583     3.4698497
C        1.2248957    11.8719470     0.0046891
C        9.8858189     5.5204242     3.4791069
C        7.5755745    11.8183664     6.9356267
C       16.2295514     5.5739837     3.4783219
C        9.9344093     0.7236148     0.0131649
C        1.1764413     7.0754120     3.4705659
C       15.0332509     1.5844275     6.9396622
C        6.2764397     7.8397437     3.4652488
C        2.4686604    11.0540559     0.0093112
C       11.1374026     4.7133021     3.4835819
C        6.3239226    11.0113510     6.9311713
C       14.9858016     4.7560606     3.4737348
C       11.1781330     1.5415816     0.0177464
C        2.4280275     7.8825244     3.4750601
H        4.1718501     7.5892619     0.0050181
H       13.2817110     1.2910295     3.4780172
H       12.8815097     5.0066028     0.0134855
H        4.5744567    11.3044599     3.4695719
H       16.3628102     0.6531676     2.1597377
H        7.6004283     6.8936728     5.6168712
H        1.0595682    11.8926325     2.1505838
H        9.7159357     5.5367982     5.6249325
H        7.7456309    11.8343940     4.7898122
H       16.3949562     5.5944731     1.3324325
H        9.8611132     0.5950687     4.7978719
H        1.0917210     6.9510795     1.3232813
H        1.1515916    12.0002185     4.7893873
H        9.8009019     5.6444377     1.3318158
H       16.4548134     0.7610140     4.7983480
H        7.6854218     7.0010615     1.3239494
H        9.7690792     0.7030896     2.1590558
H        1.0063465     7.0593728     5.6163745
H        7.6536078    11.9426863     2.1511923
H       16.3095658     5.7024958     5.6253322
end atoms_cart
mp_grid =     3     3     7
begin kpoints
      0.000000000000      0.000000000000      0.000000000000
      0.333333333333      0.000000000000      0.000000000000
      0.000000000000      0.333333333333      0.000000000000
      0.333333333333      0.333333333333      0.000000000000
     -0.333333333333      0.333333333333      0.000000000000
      0.000000000000      0.000000000000      0.142857142857
      0.333333333333      0.000000000000      0.142857142857
     -0.333333333333      0.000000000000      0.142857142857
      0.000000000000      0.333333333333      0.142857142857
      0.000000000000      0.333333333333     -0.142857142857
      0.333333333333      0.333333333333      0.142857142857
     -0.333333333333      0.333333333333     -0.142857142857
     -0.333333333333      0.333333333333      0.142857142857
      0.333333333333      0.333333333333     -0.142857142857
      0.000000000000      0.000000000000      0.285714285714
      0.333333333333      0.000000000000      0.285714285714
     -0.333333333333      0.000000000000      0.285714285714
      0.000000000000      0.333333333333      0.285714285714
      0.000000000000      0.333333333333     -0.285714285714
      0.333333333333      0.333333333333      0.285714285714
     -0.333333333333      0.333333333333     -0.285714285714
     -0.333333333333      0.333333333333      0.285714285714
      0.333333333333      0.333333333333     -0.285714285714
      0.000000000000      0.000000000000      0.428571428571
      0.333333333333      0.000000000000      0.428571428571
     -0.333333333333      0.000000000000      0.428571428571
      0.000000000000      0.333333333333      0.428571428571
      0.000000000000      0.333333333333     -0.428571428571
      0.333333333333      0.333333333333      0.428571428571
     -0.333333333333      0.333333333333     -0.428571428571
     -0.333333333333      0.333333333333      0.428571428571
      0.333333333333      0.333333333333     -0.428571428571
     -0.333333333333     -0.000000000000     -0.000000000000
     -0.000000000000     -0.333333333333     -0.000000000000
     -0.333333333333     -0.333333333333     -0.000000000000
      0.333333333333     -0.333333333333     -0.000000000000
     -0.000000000000     -0.000000000000     -0.142857142857
     -0.333333333333     -0.000000000000     -0.142857142857
      0.333333333333     -0.000000000000     -0.142857142857
     -0.000000000000     -0.333333333333     -0.142857142857
     -0.000000000000     -0.333333333333      0.142857142857
     -0.333333333333     -0.333333333333     -0.142857142857
      0.333333333333     -0.333333333333      0.142857142857
      0.333333333333     -0.333333333333     -0.142857142857
     -0.333333333333     -0.333333333333      0.142857142857
     -0.000000000000     -0.000000000000     -0.285714285714
     -0.333333333333     -0.000000000000     -0.285714285714
      0.333333333333     -0.000000000000     -0.285714285714
     -0.000000000000     -0.333333333333     -0.285714285714
     -0.000000000000     -0.333333333333      0.285714285714
     -0.333333333333     -0.333333333333     -0.285714285714
      0.333333333333     -0.333333333333      0.285714285714
      0.333333333333     -0.333333333333     -0.285714285714
     -0.333333333333     -0.333333333333      0.285714285714
     -0.000000000000     -0.000000000000     -0.428571428571
     -0.333333333333     -0.000000000000     -0.428571428571
      0.333333333333     -0.000000000000     -0.428571428571
     -0.000000000000     -0.333333333333     -0.428571428571
     -0.000000000000     -0.333333333333      0.428571428571
     -0.333333333333     -0.333333333333     -0.428571428571
      0.333333333333     -0.333333333333      0.428571428571
      0.333333333333     -0.333333333333     -0.428571428571
     -0.333333333333     -0.333333333333      0.428571428571
end kpoints
